NAME : amtsp
TYPE : ATSP
DIMENSION : 5
EDGE_WEIGHT_TYPE : EXPLICIT
EDGE_WEIGHT_FORMAT : FULL_MATRIX
EDGE_WEIGHT_SECTION
100000 -100000 100000 100000 100000 
100000 100000 -250 342 1562 
0 0 100000 -90 137 
0 0 -90 100000 -258 
0 0 137 -258 100000 
